%chk=test001
#p test hf cc-pv5z output=(mat,AO2ElectronIntegrals,MO2ElectronIntegrals) tran=full window=full
int=noraff nosymm

test

-1  1
f

test001.mat

